
Gurobi 6.5.2 (linux64) logging started Wed Aug 31 10:35:25 2016

Optimize a model with 21 rows, 33 columns and 67 nonzeros
Coefficient statistics:
  Matrix range    [1e+00, 2e+00]
  Objective range [3e+00, 1e+02]
  Bounds range    [1e+00, 1e+00]
  RHS range       [1e+00, 1e+00]
Found heuristic solution: objective 524
Presolve removed 12 rows and 12 columns
Presolve time: 0.00s
Presolved: 9 rows, 21 columns, 42 nonzeros
Variable types: 0 continuous, 21 integer (21 binary)

Root relaxation: objective 3.160000e+02, 10 iterations, 0.00 seconds

    Nodes    |    Current Node    |     Objective Bounds      |     Work
 Expl Unexpl |  Obj  Depth IntInf | Incumbent    BestBd   Gap | It/Node Time

*    0     0               0     316.0000000  316.00000  0.00%     -    0s

Explored 0 nodes (10 simplex iterations) in 0.00 seconds
Thread count was 8 (of 8 available processors)

Optimal solution found (tolerance 1.00e-04)
Best objective 3.160000000000e+02, best bound 3.160000000000e+02, gap 0.0%
